language Essence 1.3

letting class be
        function(1 --> 1, 2 --> 1, 3 --> 1, 4 --> 1, 5 --> 2, 6 --> 2, 7 --> 1, 8 --> 2, 9 --> 1, 10 --> 1, 11 --> 1,
                 12 --> 2, 13 --> 2, 14 --> 2, 15 --> 1, 16 --> 1, 17 --> 1, 18 --> 2, 19 --> 2)
letting deck_length be 10
letting deck_width be 16
letting length be
        function(1 --> 2, 2 --> 4, 3 --> 2, 4 --> 1, 5 --> 2, 6 --> 9, 7 --> 2, 8 --> 4, 9 --> 1, 10 --> 1, 11 --> 1,
                 12 --> 1, 13 --> 1, 14 --> 1, 15 --> 1, 16 --> 1, 17 --> 1, 18 --> 1, 19 --> 1)
letting n_classes be 2
letting n_containers be 19
letting separation be function({1, 2} --> 9)
letting width be
        function(1 --> 1, 2 --> 9, 3 --> 3, 4 --> 1, 5 --> 1, 6 --> 2, 7 --> 1, 8 --> 1, 9 --> 1, 10 --> 1, 11 --> 1,
                 12 --> 1, 13 --> 1, 14 --> 1, 15 --> 1, 16 --> 1, 17 --> 1, 18 --> 1, 19 --> 2)
